assignment_2/output/hhi_greedy/lambda25.0/xql662_lambda25.0.tour
NAME : xql662
COMMENT : Tour length 7573
TYPE : TOUR
DIMENSION : 662
TOUR_SECTION
1
49
56
86
97
107
153
158
662
661
660
659
658
657
656
655
654
653
651
627
652
648
637
638
639
649
650
641
642
643
644
645
646
647
634
640
636
635
633
632
631
630
629
628
626
625
624
623
619
603
595
622
621
620
618
617
616
615
614
613
612
611
610
609
608
607
606
605
604
600
602
601
588
587
599
598
597
596
594
593
592
591
590
589
567
566
565
564
580
579
586
585
584
583
582
581
578
577
576
575
574
573
572
571
570
569
568
563
562
561
560
559
556
558
557
555
554
553
552
551
539
550
549
548
547
546
545
544
543
542
541
540
536
535
534
533
532
531
530
537
529
528
527
526
525
538
524
523
522
521
520
519
518
517
516
515
514
513
512
511
510
509
508
507
502
506
505
504
503
501
500
499
498
497
496
495
494
493
492
491
490
489
486
480
483
484
485
487
488
481
482
479
478
477
476
475
474
473
472
467
471
470
464
449
469
468
466
465
458
457
456
455
454
453
452
460
451
450
448
447
446
463
462
461
445
444
443
442
441
440
439
438
437
436
459
435
434
433
432
431
430
418
417
416
415
429
428
427
423
413
426
425
424
422
421
420
414
419
411
401
384
370
412
403
402
410
409
408
407
406
405
404
388
400
399
398
397
393
382
383
385
386
394
395
396
392
391
390
389
387
374
373
372
371
369
368
367
366
365
364
363
362
361
360
381
380
379
378
377
376
359
358
375
357
356
352
355
354
347
338
337
336
335
346
353
342
343
344
345
333
351
350
349
348
341
340
339
334
331
332
307
303
322
330
329
328
327
326
325
324
323
321
312
313
320
319
318
317
316
315
314
311
306
310
309
308
302
305
304
290
289
288
287
286
285
292
301
300
299
298
297
296
295
294
293
291
266
284
283
282
281
280
279
278
277
276
275
274
273
272
271
270
269
268
267
265
264
263
262
261
260
259
255
253
247
258
257
256
246
244
243
245
241
239
254
252
251
250
249
248
240
230
242
238
237
236
235
234
233
232
231
229
228
227
226
225
224
223
218
222
221
220
219
217
206
208
210
211
212
213
215
216
184
214
209
207
205
204
203
202
201
200
199
198
197
196
195
194
193
192
191
190
189
188
187
186
185
183
182
173
181
180
179
169
168
178
177
176
175
174
172
171
170
163
162
161
156
167
166
165
164
157
160
159
155
154
152
151
150
149
148
147
146
145
144
143
142
137
138
139
140
141
131
136
135
134
133
132
130
120
123
124
125
126
127
128
129
106
122
121
119
118
117
116
115
114
113
112
111
110
109
108
105
104
103
99
102
101
100
96
95
98
93
90
88
87
85
84
94
92
91
89
83
82
77
76
75
74
73
81
80
79
78
72
66
71
70
69
68
67
65
64
63
62
61
60
59
58
57
54
50
44
37
55
53
52
48
51
43
45
40
47
46
41
39
38
36
42
33
35
26
29
30
31
32
34
28
27
25
24
23
22
21
20
19
18
17
16
15
14
13
12
11
10
9
8
7
6
5
4
3
2
1
-1
EOF